p cnf 350 653
-1 0
-350 0
-344 0
-338 0
-332 0
-326 0
-320 0
-314 0
-308 0
-302 0
-296 0
-290 0
-284 0
-278 0
-272 0
-266 0
-260 0
-250 0
-251 0
-252 0
-253 0
-254 0
-247 0
-248 0
10 0
-349 0
19 0
20 0
-28 0
-29 0
-30 0
37 0
-46 0
-47 0
-48 0
-55 0
-241 0
-242 0
-64 0
-343 0
-65 0
-66 0
73 0
74 0
75 0
76 0
-82 0
-83 0
-91 0
-92 0
100 0
109 0
-235 0
-236 0
118 0
119 0
-337 0
127 0
136 0
-153 0
-154 0
-155 0
-156 0
-157 0
-158 0
-256 0
-257 0
-258 0
-229 0
-230 0
-331 0
-259 0
-164 0
-170 0
-176 0
-182 0
-223 0
-224 0
-188 0
-325 0
-194 0
-200 0
-206 0
-212 0
-218 0
-217 0
-211 0
-319 0
-246 0
-348 0
-240 0
-342 0
-234 0
-336 0
-160 0
-161 0
-162 0
-228 0
-163 0
-330 0
-313 0
-263 0
-264 0
-265 0
-222 0
-324 0
-205 0
-245 0
-347 0
-239 0
-307 0
-341 0
-233 0
-335 0
-216 0
-227 0
-210 0
-167 0
-312 0
-199 0
-168 0
-169 0
-329 0
-301 0
-270 0
-271 0
-221 0
-323 0
-193 0
-204 0
-244 0
-346 0
-318 0
-238 0
-295 0
-340 0
-306 0
-232 0
-334 0
-226 0
-198 0
-174 0
-187 0
-220 0
-175 0
-300 0
-328 0
-289 0
-277 0
-181 0
-215 0
-322 0
-192 0
-317 0
-294 0
-209 0
-283 0
-311 0
-186 0
-288 0
-214 0
-203 0
-180 0
-316 0
-305 0
-208 0
-282 0
-276 0
-197 0
-299 0
-191 0
-310 0
-202 0
-293 0
-304 0
-185 0
-196 0
-287 0
-298 0
-190 0
-184 0
-179 0
-281 0
-292 0
-173 0
-178 0
-286 0
-280 0
-275 0
-269 0
-172 0
-166 0
-268 0
-274 0
-262 0
309 -207 213 0
81 -303 0
-145 2 0
145 -2 0
-183 189 0
3 -2 0
-3 2 0
4 -3 0
-4 3 0
148 -4 5 0
-148 4 5 0
148 4 -5 0
-148 -4 -5 0
149 -5 6 0
-149 5 6 0
149 5 -6 0
-149 -5 -6 0
150 -6 7 0
-150 6 7 0
150 6 -7 0
-150 -6 -7 0
151 -7 8 0
-151 7 8 0
151 7 -8 0
-151 -7 -8 0
9 -8 0
-9 8 0
-285 -183 0
145 11 0
321 219 -225 0
-321 -219 -225 0
-145 -11 0
12 -11 0
-12 11 0
13 -12 0
-13 12 0
14 -13 0
-14 13 0
149 -14 15 0
-149 14 15 0
149 14 -15 0
-149 -14 -15 0
16 -15 0
-16 15 0
151 -16 17 0
-151 16 17 0
151 16 -17 0
-151 -16 -17 0
18 -17 0
-18 17 0
-81 303 0
303 -201 207 0
-225 231 0
146 21 0
-291 -189 -195 0
-303 201 207 0
-146 -21 0
22 -21 0
-22 21 0
148 -22 23 0
-148 22 23 0
148 22 -23 0
-148 -22 -23 0
24 -23 0
-24 23 0
150 -24 25 0
-150 24 25 0
150 24 -25 0
-150 -24 -25 0
151 -25 26 0
-151 25 26 0
151 25 -26 0
-151 -25 -26 0
27 -26 0
-27 26 0
-297 -195 -201 0
297 195 -201 0
-297 195 201 0
297 -195 201 0
-72 297 0
-243 249 0
-147 31 0
147 -31 0
-345 -243 0
32 -31 0
-32 31 0
33 -32 0
-33 32 0
34 -33 0
-34 33 0
35 -34 0
-35 34 0
36 -35 0
-36 35 0
-327 -225 0
145 38 0
-219 225 0
72 -297 0
-145 -38 0
146 -38 39 0
-146 38 39 0
146 38 -39 0
-146 -38 -39 0
40 -39 0
-40 39 0
148 -40 41 0
-148 40 41 0
148 40 -41 0
-148 -40 -41 0
42 -41 0
-42 41 0
150 -42 43 0
-150 42 43 0
150 42 -43 0
-150 -42 -43 0
44 -43 0
-44 43 0
45 -44 0
-45 44 0
-90 309 0
-345 -243 -249 0
345 243 -249 0
-345 243 249 0
345 -243 249 0
-144 345 0
-147 49 0
147 -49 0
144 -345 0
50 -49 0
-50 49 0
149 -50 51 0
-149 50 51 0
149 50 -51 0
-149 -50 -51 0
150 -51 52 0
-150 51 52 0
150 51 -52 0
-150 -51 -52 0
53 -52 0
-53 52 0
54 -53 0
-54 53 0
303 201 -207 0
63 -291 0
-145 56 0
145 -56 0
309 207 -213 0
57 -56 0
-57 56 0
147 -57 58 0
-147 57 58 0
147 57 -58 0
-147 -57 -58 0
59 -58 0
-59 58 0
149 -59 60 0
-149 59 60 0
149 59 -60 0
-149 -59 -60 0
150 -60 61 0
-150 60 61 0
150 60 -61 0
-150 -60 -61 0
151 -61 62 0
-151 61 62 0
151 61 -62 0
-151 -61 -62 0
152 -62 63 0
-152 62 63 0
152 62 -63 0
-152 -62 -63 0
-309 -207 0
-63 291 0
-321 219 225 0
90 -309 0
-279 -177 -183 0
279 177 -183 0
-147 67 0
147 -67 0
-279 177 183 0
148 -67 68 0
-148 67 68 0
148 67 -68 0
-148 -67 -68 0
149 -68 69 0
-149 68 69 0
149 68 -69 0
-149 -68 -69 0
150 -69 70 0
-150 69 70 0
150 69 -70 0
-150 -69 -70 0
71 -70 0
-71 70 0
152 -71 72 0
-152 71 72 0
152 71 -72 0
-152 -71 -72 0
-207 213 0
-285 -183 -189 0
285 183 -189 0
-285 183 189 0
285 -183 189 0
-297 -195 0
279 -177 183 0
148 77 0
-54 285 0
54 -285 0
-148 -77 0
78 -77 0
-78 77 0
150 -78 79 0
-150 78 79 0
150 78 -79 0
-150 -78 -79 0
80 -79 0
-80 79 0
152 -80 81 0
-152 80 81 0
152 80 -81 0
-152 -80 -81 0
-195 201 0
-237 243 0
-339 -237 0
291 -189 195 0
-146 84 0
146 -84 0
261 -159 165 0
147 -84 85 0
-147 84 85 0
147 84 -85 0
-147 -84 -85 0
148 -85 86 0
-148 85 86 0
148 85 -86 0
-148 -85 -86 0
149 -86 87 0
-149 86 87 0
149 86 -87 0
-149 -86 -87 0
150 -87 88 0
-150 87 88 0
150 87 -88 0
-150 -87 -88 0
151 -88 89 0
-151 88 89 0
151 88 -89 0
-151 -88 -89 0
90 -89 0
-90 89 0
-309 207 213 0
-321 -219 0
-45 279 0
45 -279 0
-146 93 0
146 -93 0
-339 -237 -243 0
147 -93 94 0
-147 93 94 0
147 93 -94 0
-147 -93 -94 0
148 -94 95 0
-148 94 95 0
148 94 -95 0
-148 -94 -95 0
96 -95 0
-96 95 0
97 -96 0
-97 96 0
151 -97 98 0
-151 97 98 0
151 97 -98 0
-151 -97 -98 0
99 -98 0
-99 98 0
339 237 -243 0
145 101 0
-339 237 243 0
339 -237 243 0
-145 -101 0
102 -101 0
-102 101 0
147 -102 103 0
-147 102 103 0
147 102 -103 0
-147 -102 -103 0
148 -103 104 0
-148 103 104 0
148 103 -104 0
-148 -103 -104 0
149 -104 105 0
-149 104 105 0
149 104 -105 0
-149 -104 -105 0
150 -105 106 0
-150 105 106 0
150 105 -106 0
-150 -105 -106 0
107 -106 0
-107 106 0
108 -107 0
-108 107 0
-135 339 0
145 110 0
135 -339 0
-303 -201 -207 0
-145 -110 0
146 -110 111 0
-146 110 111 0
146 110 -111 0
-146 -110 -111 0
147 -111 112 0
-147 111 112 0
147 111 -112 0
-147 -111 -112 0
113 -112 0
-113 112 0
149 -113 114 0
-149 113 114 0
149 113 -114 0
-149 -113 -114 0
115 -114 0
-115 114 0
116 -115 0
-116 115 0
117 -116 0
-117 116 0
-159 165 0
-213 219 0
-315 -213 0
146 120 0
-309 -207 -213 0
-171 177 0
-146 -120 0
121 -120 0
-121 120 0
122 -121 0
-122 121 0
123 -122 0
-123 122 0
150 -123 124 0
-150 123 124 0
150 123 -124 0
-150 -123 -124 0
151 -124 125 0
-151 124 125 0
151 124 -125 0
-151 -124 -125 0
152 -125 126 0
-152 125 126 0
152 125 -126 0
-152 -125 -126 0
-273 -171 0
145 128 0
-18 261 0
18 -261 0
-145 -128 0
146 -128 129 0
-146 128 129 0
146 128 -129 0
-146 -128 -129 0
147 -129 130 0
-147 129 130 0
147 129 -130 0
-147 -129 -130 0
148 -130 131 0
-148 130 131 0
148 130 -131 0
-148 -130 -131 0
149 -131 132 0
-149 131 132 0
149 131 -132 0
-149 -131 -132 0
133 -132 0
-133 132 0
134 -133 0
-134 133 0
135 -134 0
-135 134 0
27 -267 0
145 137 0
117 -327 0
-117 327 0
-145 -137 0
146 -137 138 0
-146 137 138 0
146 137 -138 0
-146 -137 -138 0
147 -138 139 0
-147 138 139 0
147 138 -139 0
-147 -138 -139 0
140 -139 0
-140 139 0
149 -140 141 0
-149 140 141 0
149 140 -141 0
-149 -140 -141 0
150 -141 142 0
-150 141 142 0
150 141 -142 0
-150 -141 -142 0
143 -142 0
-143 142 0
152 -143 144 0
-152 143 144 0
152 143 -144 0
-152 -143 -144 0
327 -225 231 0
-261 -159 0
-261 159 165 0
-267 -165 -171 0
-27 267 0
-261 -159 -165 0
9 -255 0
-9 255 0
261 159 -165 0
-255 159 0
255 -159 0
-327 225 231 0
-231 237 0
327 225 -231 0
-291 189 195 0
-333 -231 0
-315 -213 -219 0
267 -165 171 0
-273 -171 -177 0
-267 165 171 0
273 171 -177 0
315 213 -219 0
-315 213 219 0
-273 171 177 0
273 -171 177 0
-333 -231 -237 0
333 231 -237 0
-333 231 237 0
333 -231 237 0
315 -213 219 0
-99 315 0
-126 333 0
126 -333 0
99 -315 0
-36 273 0
291 189 -195 0
108 -321 0
-108 321 0
321 -219 225 0
-177 183 0
-279 -177 0
-201 207 0
-303 -201 0
-165 171 0
-267 -165 0
36 -273 0
-327 -225 -231 0
-189 195 0
-291 -189 0
267 165 -171 0
